5	15
9 5	5 1	14 5	3 3	7 5	10 1	8 2	13 3	12 1	6 1	4 2	1 9	2 1	0 1	11 3
7 5	13 1	3 5	2 3	10 4	5 1	6 1	14 1	1 1	9 1	8 2	4 1	0 1	12 1	11 1
13 1	0 1	6 3	12 1	2 2	7 2	8 1	9 1	3 7	1 1	4 5	14 1	11 1	10 2	5 1
2 1	11 10	6 2	3 3	13 6	1 2	10 2	0 1	9 3	8 1	14 3	4 2	5 3	7 5	12 6
4 1	12 1	5 1	1 1	6 1	14 2	7 1	2 1	10 1	3 1	13 2	11 1	0 2	9 2	8 1
